11А 25 11111111111111111111111111111111111
11Б 23 11111111111111111111111111111111111
10А 25 11111111111111111111111111111111111
10Б 21 11111111111111111111111111111111111
10В 28 11111111111111111111111111111111111
9А 24 11111111111111111111111111111111111
9Б 25 11111111111111111111111111111111111
9В 22 11111111111111111111111111111111111
9Г 27 11111111111111111111111111111111111
8А 26 11111111111111111111111111111111111
8Б 21 11111111111111111111111111111111111
8В 26 11111111111111111111111111111111111
8Г 23 11111111111111111111111111111111111